(declare-fun C_in () Int)
(declare-fun N () Int)
(declare-fun S0 () Int)
(declare-fun n_mlp () Int)

(assert (and
  (and
    (<= 0 n_mlp)
    (<= (+ n_mlp 1) (- N 1))
    (<= 1 (- C_in 1))
    (<= 1 (- S0 1))
    (<= 1 (- N 1))
  )
  (forall ((k_matmul_0 Int) (k_matmul_1 Int) (s0_mlp_0 Int) (s0_mlp_1 Int))
    (or
      (not (<= 0 s0_mlp_0))
      (not (<= s0_mlp_0 (- S0 1)))
      (not (<= 0 s0_mlp_1))
      (not (<= s0_mlp_1 (- S0 1)))
      (not (= n_mlp (+ n_mlp 1)))
      (not (= s0_mlp_0 s0_mlp_1))
      (not (<= 0 k_matmul_1))
      (not (<= k_matmul_1 (- C_in 1)))
      (not (<= 0 k_matmul_0))
      (not (<= k_matmul_0 (- C_in 1)))
    )
  )
  (forall ((k_matmul_0 Int) (s0_mlp_0 Int) (s0_mlp_1 Int))
    (or
      (not (<= 0 s0_mlp_0))
      (not (<= s0_mlp_0 (- S0 1)))
      (not (<= 0 s0_mlp_1))
      (not (<= s0_mlp_1 (- S0 1)))
      (not (= n_mlp (+ n_mlp 1)))
      (not (= s0_mlp_0 s0_mlp_1))
      (not (<= 0 k_matmul_0))
      (not (<= k_matmul_0 (- C_in 1)))
    )
  )
  (forall ((k_matmul_1 Int) (s0_mlp_0 Int) (s0_mlp_1 Int))
    (or
      (not (<= 0 s0_mlp_0))
      (not (<= s0_mlp_0 (- S0 1)))
      (not (<= 0 s0_mlp_1))
      (not (<= s0_mlp_1 (- S0 1)))
      (not (= n_mlp (+ n_mlp 1)))
      (not (= s0_mlp_0 s0_mlp_1))
      (not (<= 0 k_matmul_1))
      (not (<= k_matmul_1 (- C_in 1)))
    )
  )
  (forall ((s0_mlp_0 Int) (s0_mlp_1 Int))
    (or
      (not (<= 0 s0_mlp_0))
      (not (<= s0_mlp_0 (- S0 1)))
      (not (<= 0 s0_mlp_1))
      (not (<= s0_mlp_1 (- S0 1)))
      (not (= n_mlp (+ n_mlp 1)))
      (not (= s0_mlp_0 s0_mlp_1))
    )
  )
))

(check-sat)